N = 11;
H = 6;
T = 2;

avail = array3d(1..N, 1..H, 1..T, [3, 6, 5, 7, 2, 8, 2, 8, 4, 8, 10, 4, 0, 8, 1, 2, 8, 7, 10, 6, 5, 0, 6, 8, 9, 9, 6, 0, 5, 3, 8, 5, 5, 4, 7, 4, 6, 2, 9, 10, 1, 3, 4, 8, 6, 4, 0, 6, 0, 9, 7, 7, 8, 5, 2, 2, 10, 6, 5, 5, 10, 0, 7, 3, 2, 4, 5, 9, 1, 5, 0, 2, 9, 1, 10, 2, 7, 7, 8, 6, 2, 3, 4, 0, 7, 1, 2, 8, 4, 10, 5, 4, 6, 8, 0, 4, 10, 3, 5, 5, 3, 9, 7, 3, 1, 1, 7, 4, 7, 0, 2, 2, 10, 5, 6, 1, 10, 4, 1, 5, 5, 4, 3, 5, 9, 10, 9, 0, 0, 0, 9, 1]);

r = array2d(1..H, 1..T, [2, 2, 3, 3, 4, 3, 3, 3, 5, 2, 0, 3]);
